n = 100;
C = 504;
w = [548,474,261,750,694,647,697,353,975,903,472,849,105,836,883,274,793,124,49,806,399,754,199,983,2,258,114,806,473,816,79,310,347,306,52,394,784,362,268,347,557,621,375,571,284,670,991,301,601,627,124,818,751,599,673,829,785,527,357,568,577,141,411,902,917,856,546,158,709,290,998,126,798,280,445,534,130,365,19,81,157,992,414,807,801,650,483,478,212,41,215,284,453,407,382,886,226,427,944,700];
p = [347,615,457,463,627,943,475,928,449,297,852,661,953,9,292,282,773,476,428,93,439,883,139,555,674,804,725,227,754,113,551,506,760,79,884,454,135,631,356,659,129,953,896,97,706,468,319,643,324,487,612,129,890,996,853,280,573,487,622,653,650,108,804,149,738,54,802,72,673,1000,159,985,559,296,262,112,914,815,461,777,601,275,822,762,475,885,50,16,198,19,657,291,617,519,314,645,3,166,146,583];
